NAME: Random_60_1
ELLAPSED_TIME_(ms): 0
TOUR_SIZE: 1535.8392
TOUR_SECTION
0
46
6
35
15
24
30
20
11
16
31
36
18
43
32
8
34
50
47
4
12
33
2
10
45
28
19
14
39
52
9
26
29
23
1
17
13
22
41
3
7
51
53
48
25
42
38
49
44
59
27
55
57
56
5
54
37
40
21
58
0
EOF
